n_res = 6;
rcap = [30, 42, 38, 38, 92, 91];
rtype = [1, 1, 1, 1, 2, 2];
n_tasks = 16;
modes = [ {1, 2, 3}, {4, 5, 6}, {7, 8, 9}, {10, 11, 12}, {13, 14, 15}, {16, 17, 18}, {19, 20, 21}, {22, 23, 24}, {25, 26, 27}, {28, 29, 30}, {31, 32, 33}, {34, 35, 36}, {37, 38, 39}, {40, 41, 42}, {43, 44, 45}, {46, 47, 48} ];
succ = [ {5, 9, 11}, {6, 8}, {4, 6, 14}, {7, 9, 11}, {8, 15}, {7, 9, 11}, {10, 15}, {10, 12, 13}, {16}, {16}, {15, 16}, {14}, {14}, {}, {}, {} ];
n_opt = 48;
dur = [1, 4, 6, 1, 7, 8, 9, 10, 10, 2, 3, 8, 3, 8, 10, 1, 2, 6, 3, 3, 10, 4, 9, 10, 3, 4, 9, 7, 9, 9, 2, 2, 7, 4, 6, 6, 4, 5, 6, 1, 5, 7, 5, 8, 10, 4, 5, 8];
rreq = [| 10,  5,  5,  2,  2,  1,  8,  7,  7,  8,  5,  4,  3,  2,  2,  9,  9,  9,  8,  9,  6,  8,  6,  5,  6,  5,  4,  5,  4,  4,  3,  3,  2,  5,  4,  2,  7,  6,  5,  7,  5,  4,  7,  6,  2,  5,  5,  5
        |  7,  5,  5,  5,  5,  5,  9,  6,  5, 10,  6,  5,  9,  7,  4, 10,  8,  6,  8,  7,  4,  7,  7,  6,  4,  3,  2,  9,  4,  6,  9, 10,  7, 10,  9,  8, 10, 10, 10,  9,  8,  8, 10, 10, 10,  6,  6,  3
        |  6,  5,  2,  5,  3,  2,  4,  3,  2,  8,  7,  7,  7,  5,  4,  4,  4,  4,  4,  5,  2,  9,  4,  3,  8,  5,  4,  9,  7,  6,  6,  7,  5, 10,  5,  3,  8,  5,  3,  6,  6,  5,  6,  5,  3,  4,  3,  3
        |  8,  7,  7,  8,  7,  5,  5,  2,  5,  7,  6,  6,  6,  5,  3,  6,  6,  6,  4,  4,  4,  9,  7,  4,  8,  7,  3,  6,  4,  3,  9, 10,  8, 10, 10, 10,  6,  5,  2, 10,  5,  5,  7,  7,  6,  9,  6,  3
        |  3,  3,  3,  2,  1,  1,  7,  5,  3,  5,  5,  5,  6,  6,  5, 10, 10, 10,  4,  4,  2,  9,  8,  8,  8,  6,  5,  8,  6,  6,  8,  7,  7, 10, 10, 10,  7,  7,  3,  3,  2,  1,  5,  4,  1,  4,  4,  1
        |  9,  7,  3,  5,  5,  4,  8,  6,  7,  3,  2,  2,  8,  8,  7,  6,  5,  3,  6,  7,  2,  8,  5,  2,  3,  2,  2,  7,  1,  3,  2,  2,  2,  9,  2,  5,  7,  6,  6,  7,  5,  2,  8,  8,  7,  6,  6,  5 |];
